% RUNS ON flatzinc
% RUNS ON fzn_fd

array [1..2] of var set of 1..3: xs :: output_array([1..3]);

constraint set_subset(xs[1], 1..2);

solve :: set_search(xs, anti_first_fail, indomain_min, complete)
	satisfy;
